(set-info :smt-lib-version 2.6)
(set-logic QF_NIRA)
(set-info :source |Submitted by David Monniaux <David.Monniaux@imag.fr>|)
(set-info :category "industrial")
(set-info :status unknown)
(declare-fun x_DELTAP.0_ () Real)
(declare-fun x_XK35Z12.0_ () Real)
(declare-fun x_add.i.i.i.i_ () Int)
(declare-fun x_add.i302.i.i_ () Real)
(declare-fun x_shr.i.i.i.i_ () Int)
(assert (= x_add.i.i.i.i_ (+ x_shr.i.i.i.i_ 6.5535)))
(assert (= x_add.i302.i.i_ (+ x_XK35Z12.0_ x_DELTAP.0_)))
(check-sat)
(exit)
